
Log started (V12.10.0.0) Thu Apr  8 18:15:42 2021


Problem 'asset.lp' read.
Read time = 0.00 sec. (0.16 ticks)
New value for default parallel thread count: 1
New value for time limit in seconds: 200
Version identifier: 12.10.0.0 | 2019-11-26 | 843d4de
CPXPARAM_Threads                                 1
CPXPARAM_TimeLimit                               200
Found incumbent of value -0.903958 after 0.00 sec. (0.07 ticks)
Tried aggregator 6 times.
MIP Presolve eliminated 864 rows and 649 columns.
MIP Presolve modified 1851 coefficients.
Aggregator did 352 substitutions.
Reduced MIP has 292 rows, 324 columns, and 1298 nonzeros.
Reduced MIP has 295 binaries, 12 generals, 0 SOSs, and 0 indicators.
Presolve time = 0.01 sec. (6.87 ticks)
Probing fixed 25 vars, tightened 3 bounds.
Probing time = 0.00 sec. (2.68 ticks)
Cover probing fixed 0 vars, tightened 15 bounds.
Tried aggregator 3 times.
MIP Presolve eliminated 35 rows and 32 columns.
MIP Presolve modified 55 coefficients.
Aggregator did 5 substitutions.
Reduced MIP has 252 rows, 284 columns, and 1084 nonzeros.
Reduced MIP has 265 binaries, 4 generals, 0 SOSs, and 0 indicators.
Presolve time = 0.00 sec. (2.45 ticks)
Probing time = 0.00 sec. (2.35 ticks)
Tried aggregator 1 time.
Detecting symmetries...
Reduced MIP has 252 rows, 284 columns, and 1084 nonzeros.
Reduced MIP has 265 binaries, 4 generals, 0 SOSs, and 0 indicators.
Presolve time = 0.00 sec. (0.76 ticks)
Probing time = 0.00 sec. (2.35 ticks)
Clique table members: 818.
MIP emphasis: balance optimality and feasibility.
MIP search method: dynamic search.
Parallel mode: none, using 1 thread.
Root relaxation solution time = 0.00 sec. (2.61 ticks)

        Nodes                                         Cuts/
   Node  Left     Objective  IInf  Best Integer    Best Bound    ItCnt     Gap

*     0+    0                           -0.9040      305.2139              --- 
      0     0      133.6176    55       -0.9040      133.6176      246     --- 
*     0+    0                           59.4495      133.6176           124.76%
      0     0      127.3418    55       59.4495      Cuts: 76      299  114.20%
*     0+    0                           66.9351      127.3418            90.25%
      0     0      124.3895    55       66.9351      Cuts: 55      345   85.84%
      0     0      124.0198    55       66.9351      Cuts: 64      387   85.28%
      0     0      122.9245    55       66.9351      Cuts: 51      429   83.65%
*     0+    0                           84.0829      122.9245            46.19%
      0     0      122.0853    55       84.0829      Cuts: 84      495   45.20%
Detecting symmetries...
      0     0      120.9706    55       84.0829      Cuts: 37      525   43.87%
      0     0      118.7954    55       84.0829      Cuts: 30      556   41.28%
      0     0      118.1199    55       84.0829      Cuts: 49      577   40.48%
      0     0      117.6899    55       84.0829      Cuts: 47      608   39.97%
      0     0      117.5825    55       84.0829      Cuts: 36      626   39.84%
      0     0      117.2770    55       84.0829      Cuts: 32      644   39.48%
      0     0      116.6317    55       84.0829      Cuts: 49      671   38.71%
      0     0      116.3711    55       84.0829      Cuts: 35      706   38.40%
      0     0      116.0914    55       84.0829      Cuts: 45      749   38.07%
      0     0      116.0274    55       84.0829      Cuts: 36      780   37.99%
      0     0      115.8974    55       84.0829      Cuts: 33      808   37.84%
      0     0      115.7037    55       84.0829      Cuts: 22      825   37.61%
      0     0      115.0669    55       84.0829      Cuts: 20      851   36.85%
      0     0      114.2781    55       84.0829      Cuts: 25      890   35.91%
      0     0      113.9990    55       84.0829      Cuts: 35      934   35.58%
      0     0      113.5861    55       84.0829      Cuts: 62     1006   35.09%
      0     0      113.3906    55       84.0829      Cuts: 18     1059   34.86%
      0     0      113.2114    55       84.0829      Cuts: 32     1089   34.64%
*     0+    0                           85.7778      113.2114            31.98%
      0     0      113.1045    55       85.7778      Cuts: 37     1139   31.86%
      0     0      112.9060    55       85.7778      Cuts: 45     1197   31.63%
      0     0      112.5700    55       85.7778      Cuts: 28     1242   31.23%
      0     0      112.5166    55       85.7778      Cuts: 22     1261   31.17%
      0     0      112.4405    55       85.7778      Cuts: 32     1291   31.08%
      0     0      112.3459    55       85.7778      Cuts: 49     1312   30.97%
      0     0      112.3286    55       85.7778      Cuts: 38     1338   30.95%
      0     0      112.2707    55       85.7778      Cuts: 26     1369   30.89%
      0     0      112.2480    55       85.7778      Cuts: 27     1391   30.86%
Detecting symmetries...
      0     2      112.2480    89       85.7778      112.2410     1391   30.85%
Elapsed time = 0.17 sec. (131.83 ticks, tree = 0.01 MB, solutions = 4)
*    40+   19                           91.7147      110.0767            20.02%

Cover cuts applied:  1
Implied bound cuts applied:  85
Flow cuts applied:  1
Mixed integer rounding cuts applied:  10
Zero-half cuts applied:  18
Lift and project cuts applied:  1
Gomory fractional cuts applied:  2

Root node processing (before b&c):
  Real time             =    0.17 sec. (131.90 ticks)
Sequential b&c:
  Real time             =    0.08 sec. (85.61 ticks)
                          ------------
Total (root+branch&cut) =    0.24 sec. (217.51 ticks)

Solution pool: 6 solutions saved.

MIP - Integer optimal solution:  Objective =  9.1714685190e+01
Solution time =    0.24 sec.  Iterations = 5250  Nodes = 274
Deterministic time = 217.51 ticks  (888.80 ticks/sec)


Incumbent solution
Variable Name           Solution Value
F                            95.000000
f1                            0.915315
f2                            2.370000
y109                          1.000000
y125                          1.000000
y67                           1.000000
y43                           1.000000
y170                          1.000000
y45                           1.000000
s11                           6.000000
s17                           6.000000
s19                           6.000000
s27                           6.000000
s33                           6.000000
s44                           6.000000
s53                           6.000000
s63                           6.000000
s74                           6.000000
s78                           6.000000
s79                           6.000000
s81                           6.000000
s91                           6.000000
s119                          6.000000
s121                          6.000000
s139                          6.000000
s142                          6.000000
s151                          6.000000
s157                          6.000000
s160                          6.000000
s164                          6.000000
s177                          6.000000
s183                          6.000000
s194                          6.000000
s123                          6.040000
s109                          6.419810
s32                           6.130000
s56                           6.140000
s21                           6.210000
s82                           6.260000
s125                          7.170826
s18                           6.290000
s113                          6.370000
s67                           6.678408
s36                           6.640000
s193                          6.680000
s188                          6.760000
s115                          6.780000
s43                           7.708222
s126                          6.830000
s166                          6.890000
s170                          7.831886
s114                          6.920000
s45                           7.476956
s159                          7.000000
s52                           7.020000
x13x125x1                     2.000000
x72x45x1                      1.000000
x61x109x1                     1.000000
x72x45x2                      1.000000
x61x109x2                     1.000000
x54x67x3                      2.000000
x109x170x1                    1.000000
x109x43x2                     1.000000
x125x0x1                      2.000000
x67x43x3                      1.000000
x67x170x3                     1.000000
x43x0x2                       1.000000
x43x0x3                       1.000000
x170x0x1                      1.000000
x170x0x3                      1.000000
x45x0x1                       1.000000
x45x0x2                       1.000000
s13                           5.720000
z13z125z1                     1.000000
s72                           5.872775
z72z45z1                      1.000000
z72z45z2                      1.000000
s61                           4.314410
z61z109z1                     1.000000
z61z109z2                     1.000000
z61z36z2                      1.000000
z61z166z2                     1.000000
s54                           4.840290
z54z67z3                      1.000000
z109z43z2                     1.000000
z109z170z1                    1.000000
z67z43z3                      1.000000
z67z170z3                     1.000000
All other variables in the range 1-1325 are 0.
